solution status: optimal solution found
objective value:                     116730.784435899
d11(0,0)                                            1 	(obj:0)
d11(1,1)                                            1 	(obj:0)
d11(1,2)                                            1 	(obj:0)
d11(2,4)                                            1 	(obj:0)
d11(2,5)                                            1 	(obj:0)
d11(2,7)                                            1 	(obj:0)
d11(2,8)                                            1 	(obj:0)
d11(2,10)                                           1 	(obj:0)
d11(2,11)                                           1 	(obj:0)
d11(3,13)                                           1 	(obj:0)
d11(3,14)                                           1 	(obj:0)
d11(3,16)                                           1 	(obj:0)
d11(3,17)                                           1 	(obj:0)
d11(3,19)                                           1 	(obj:0)
d11(3,20)                                           1 	(obj:0)
d11(3,22)                                           1 	(obj:0)
d11(3,23)                                           1 	(obj:0)
d11(3,25)                                           1 	(obj:0)
d11(3,26)                                           1 	(obj:0)
d11(3,28)                                           1 	(obj:0)
d11(3,29)                                           1 	(obj:0)
d11(3,31)                                           1 	(obj:0)
d11(3,32)                                           1 	(obj:0)
d11(3,34)                                           1 	(obj:0)
d11(3,35)                                           1 	(obj:0)
d11(3,37)                                           1 	(obj:0)
d11(3,38)                                           1 	(obj:0)
d12(1,3)                                            1 	(obj:0)
d12(2,6)                                            1 	(obj:0)
d12(2,9)                                            1 	(obj:0)
d12(2,12)                                           1 	(obj:0)
d12(3,15)                                           1 	(obj:0)
d12(3,18)                                           1 	(obj:0)
d12(3,21)                                           1 	(obj:0)
d12(3,24)                                           1 	(obj:0)
d12(3,27)                                           1 	(obj:0)
d12(3,30)                                           1 	(obj:0)
d12(3,33)                                           1 	(obj:0)
d12(3,36)                                           1 	(obj:0)
d12(3,39)                                           1 	(obj:0)
d21(2,4)                                            1 	(obj:0)
d21(3,13)                                           1 	(obj:0)
d21(3,14)                                           1 	(obj:0)
d21(3,15)                                           1 	(obj:0)
d21(3,16)                                           1 	(obj:0)
d21(3,17)                                           1 	(obj:0)
d21(3,19)                                           1 	(obj:0)
d21(3,22)                                           1 	(obj:0)
d21(3,23)                                           1 	(obj:0)
d21(3,25)                                           1 	(obj:0)
d21(3,31)                                           1 	(obj:0)
y2(3,24)                             404.040102109617 	(obj:0)
y2(3,27)                             404.040102109617 	(obj:0)
y2(3,30)                             404.040102109617 	(obj:0)
y2(3,33)                             404.040102109617 	(obj:0)
y2(3,36)                             404.040102109617 	(obj:0)
y2(3,39)                             404.040102109617 	(obj:0)
STE(1,1)                             2809.11699833336 	(obj:0)
STE(0,0)                                         4725 	(obj:0)
STE(1,2)                             3805.88300166665 	(obj:0)
STE(1,3)                             4778.02442135359 	(obj:0)
STE(2,4)                             893.233996666709 	(obj:0)
STE(2,5)                                         1890 	(obj:0)
STE(2,6)                             2862.14141968695 	(obj:0)
STE(2,7)                                         1890 	(obj:0)
STE(2,8)                             2886.76600333329 	(obj:0)
STE(2,9)                             3858.90742302024 	(obj:0)
STE(2,10)                            2862.14141968695 	(obj:0)
STE(2,11)                            3858.90742302024 	(obj:0)
STE(2,12)                            4831.04884270719 	(obj:0)
STE(3,13)                           -1075.67342635353 	(obj:0)
STE(3,14)                           -78.9074230202383 	(obj:0)
STE(3,15)                            899.072093670845 	(obj:0)
STE(3,16)                            -78.907423020237 	(obj:0)
STE(3,17)                            917.858580313053 	(obj:0)
STE(3,18)                            1895.83809700414 	(obj:0)
STE(3,19)                             893.23399666671 	(obj:0)
STE(3,20)                                        1890 	(obj:0)
STE(3,21)                            2867.97951669108 	(obj:0)
STE(3,22)                           -78.9074230202373 	(obj:0)
STE(3,23)                            917.858580313053 	(obj:0)
STE(3,24)                            1895.83809700414 	(obj:0)
STE(3,25)                            917.858580313055 	(obj:0)
STE(3,26)                            1914.62458364635 	(obj:0)
STE(3,27)                            2892.60410033743 	(obj:0)
STE(3,28)                                        1890 	(obj:0)
STE(3,29)                            2886.76600333329 	(obj:0)
STE(3,30)                            3864.74552002437 	(obj:0)
STE(3,31)                            893.233996666708 	(obj:0)
STE(3,32)                                        1890 	(obj:0)
STE(3,33)                            2867.97951669108 	(obj:0)
STE(3,34)                                        1890 	(obj:0)
STE(3,35)                            2886.76600333329 	(obj:0)
STE(3,36)                            3864.74552002437 	(obj:0)
STE(3,37)                            2862.14141968695 	(obj:0)
STE(3,38)                            3858.90742302024 	(obj:0)
STE(3,39)                            4836.88693971132 	(obj:0)
y1(3,23)                             534.727277718252 	(obj:0)
y1(3,25)                             1431.81668071821 	(obj:0)
y1(3,26)                             534.727277718252 	(obj:0)
y1(3,28)                             1431.81668071821 	(obj:0)
y1(3,29)                             534.727277718252 	(obj:0)
y1(3,31)                             1431.81668071821 	(obj:0)
y1(3,32)                             534.727277718252 	(obj:0)
y1(3,34)                             1431.81668071821 	(obj:0)
y1(3,35)                             534.727277718252 	(obj:0)
y1(3,37)                             1431.81668071821 	(obj:0)
y1(3,38)                             534.727277718253 	(obj:0)
BG(3)                                632.134725979524 	(obj:10)
WB(1)                                3199.95851117552 	(obj:0)
AVE(1)                               3199.95851117552 	(obj:0)
AVE(2)                               3265.15049132519 	(obj:0)
AVE(3)                               3291.35535332476 	(obj:0)
WG(2)                                3265.15049132519 	(obj:10)
WG(3)                                3291.35535332476 	(obj:10)
BG(1)                                3874.79418214282 	(obj:10)
BG(2)                                609.643690817635 	(obj:10)
y1(1,1)                              1384.09470149998 	(obj:0)
y1(1,2)                              487.005298500017 	(obj:0)
y1(2,4)                              1384.09470149998 	(obj:0)
y1(2,5)                              487.005298500021 	(obj:0)
y1(2,7)                              1384.09470149998 	(obj:0)
y1(2,8)                              487.005298500021 	(obj:0)
y1(2,10)                             1384.09470149998 	(obj:0)
y1(2,11)                             487.005298500021 	(obj:0)
y1(3,13)                             1431.81668071821 	(obj:0)
y1(3,14)                             534.727277718252 	(obj:0)
y1(3,16)                             1431.81668071821 	(obj:0)
y1(3,17)                             534.727277718252 	(obj:0)
y1(3,19)                             1431.81668071821 	(obj:0)
y1(3,20)                             534.727277718252 	(obj:0)
y1(3,22)                             1431.81668071821 	(obj:0)
y2(1,3)                              453.709917214311 	(obj:0)
y2(2,6)                              453.709917214305 	(obj:0)
y2(2,9)                              453.709917214305 	(obj:0)
y2(2,12)                             453.709917214305 	(obj:0)
y2(3,15)                             404.040102109617 	(obj:0)
y2(3,18)                             404.040102109617 	(obj:0)
y2(3,21)                             404.040102109617 	(obj:0)
